25348.75,51.53,56.75
23505.84,55.57,61.19
28016.33,46.62,51.34
25974.53,50.29,55.38
23384.17,55.86,61.51
26107.44,50.03,55.1
27586.04,47.35,52.14
25428.09,51.37,56.57
25735.7,50.75,55.89
27714.13,47.13,51.9
27289.05,47.86,52.71
23858.62,54.75,60.29
26889.15,48.58,53.49
27208.32,48.01,52.87
23688.83,55.14,60.72
24232.92,53.9,59.36
23431.53,55.74,61.39
28065.92,46.54,51.25
28225.05,46.28,50.96
24589.35,53.12,58.5
